28325 13916 9366 8421 8646 8664 8775 8624 8474 8566 8543 8695 8619 8691 8706 8573 8573 8488 8713 8695 8715 8715 8713 8715 8715 8488 8715 8764 8715 8715 8715 8715 8715 8715 8715 8715 8573 8715 8715 8715 8573 8715 8665 8715 8715 8715 8715 8715 8715 8695 8715 8713 8713 8715 8715 8573 8715 8715 8715 8715 8715 8715 8715 8715 8715 8715 8715 8715 8715 8715 8715 8645 8715 8715 8715 8715 8715 8715 8715 8715 8715 8715 8715 8715 8715 8715 8695 8715 8715 8715 8715 8715 8706 8715 8715 8715 8645 8573 8715 8715 8715 8715 8715 8715 8714 8715 8715 8645 8715 8715 8714 8715 8715 8645 8715 8714 8715 8645 8645 8645 8645 8645 8645 8645 8645 8645 8645 8645 8645 8645 8645 8645 8645 8645 8645 8645 8645 8645 8645 8645 8645 8645 8645 8645 8645 8645 8645 8645 8645 8645 8645 8645 8645 8645 8645 8645 8645 8645 8645 8645 8645 8645 8645 8645 8645 8714 8714 8714 8714 8714 8714 8714 8714 8714 8714 8714 8714 8714 8714 8714 8714 8714 8714 8714 8714 8714 8714 8714 8714 8714 8714 8714 8714 8714 8714 8714 8714 8714 8714 8714 8714 8714 8714 8714 8714 8714 8714 8714 8714 8714 8714 8714 8714 8714 8714 8714 8714 8714 8714 8714 8714 8714 8714 8714 8714 8714 8714 8714 8714 8714 8714 8714 8714 8714 8714 8714 8714 8714 8714 8714 8714 8714 8714 8714 8714 8714 8714 8714 8714 8714 8714 8714 8714 8714 8714 8714 8714 8714 8714 8714 8714 8714 8714 8714 8714 8714 8714 8714 8714 8714 8714 8714 8714 8714 8714 8714 8714 8714 8714 8714 8714 8714 8714 8714 8714 8714 8714 8714 8714 8714 8714 8714 8714 8714 8714 8714 8714 8714 8714 8714 8714 8714 8714 8714 8714 8714 8714 8714 8714 8714 8714 8714 8714 8714 8714 8714 8714 8714 8714 8714 8714 8714 8714 8714 8714 8714 8714 8714 8714 8714 8714 8714 8714 8714 8714 8714 8714 8714 8714 8714 8714 8714 8714 8714 8714 8714 8714 8714 8714 8714 8714 8714 8714 8714 8714 8714 8714 8714 8714 8714 8714 8714 8714 8714 8714 8714 8714 8714 8714 8714 8714 8714 8714 8714 8714 8714 8714 8714 8714 8714 8714 8714 8714 8714 8714 8714 8714 8714 8714 8714 8714 8714 8714 8714 8714 8714 8714 8714 8714 8714 8714 8714 8714 8714 8714 8714 8714 8714 8714 8714 8714 8714 8714 8714 8714 8714 8714 8714 8714 8714 8714 8714 8714 8714 8714 8714 8714 8714 8714 8714 8714 8714 8714 8714 8714 8714 8714 8714 8714 8714 8714 8714 8714 8714 8714 8714 8714 8714 8714 8714 8714 8714 8714 8714 8714 8714 8714 8714 8714 8714 8714 8714 8714 8714 8714 8714 8714 8714 8714 8714 8714 8714 8714 8714 8714 8714 8714 8714 8714 8714 8714 8714 8714 8714 8714 8714 8714 8714 8714 8714 8714 8714 8714 8714 8714 8714 8714 8714 8714 8714 8714 8714 8714 8714 8714 8714 8714 8714 8714 8714 8714 8714 8714 8714 8714 8714 8714 8714 8714 8714 8714 8714 8714 8714 8714 8714 8714 8714 8714 8714 8714 8714 8714 8714 8714 8714 8714 8714 8714 8714 8714 8714 8714 8714 8714 8714 8714 8714 8714 8714 8714 8714 8714 8714 8714 8714 8714 8714 8714 8714 8714 8714 8714 8714 8714 8714 8714 8714 8714 8714 8714 8714 8714 8714 8714 8714 8714 8714 8714 8714 8714 8714 8714 8714 8714 8714 8714 8714 8714 8714 8714 8714 8714 8714 8714 8714 8714 8714 8714 8714 8714 8714 8714 8714 8714 8714 8714 8714 8714 8714 8714 8714 8714 8714 8714 8714 8714 8714 8714 8714 8714 8714 8714 8714 8714 8714 8714 8714 8714 8714 8714 8714 8714 8714 8714 8714 8714 8714 8714 8714 8714 8714 8714 8714 8714 8714 8714 8714 8714 8714 8714 8714 8714 8714 8714 8714 8714 8714 8714 8714 8714 8714 8714 8714 8714 8714 8714 8714 8714 8714 8714 8714 8714 8714 8714 8714 8714 8714 8714 8714 8714 8714 8714 8714 8714 8714 8714 8714 8714 8714 8714 8714 8714 8714 8714 8714 8714 8714 8714 8714 8714 8714 8714 8714 8714 8714 8714 8714 8714 8714 8714 8714 8714 8714 8714 8714 8714 8714 8714 8714 8714 8714 8714 8714 8714 8714 8714 8714 8714 8714 8714 8714 8714 8714 8714 8714 8714 8714 8714 8714 8714 8714 8714 8714 8714 8714 8714 8714 8714 8714 8714 8714 8714 8714 8714 8714 8714 8714 8714 8714 8714 8714 8714 8714 8714 8714 8714 8714 8714 8714 8714 8714 8714 8714 8714 8714 8714 8714 8714 8714 8714 8714 8714 8714 8714 8714 8714 8714 8714 8714 8714 8714 8714 8714 8714 8714 8714 8714 8714 8714 8714 8714 8714 8714 8714 8714 8714 8714 8714 8714 8714 8714 8714 8714 8714 8714 8714 8714 8714 8714 8714 8714 8714 8714 8714 8714 8714 8714 8714 8714 8714 8714 8714 8714 8714 8714 8714 8714 8714 8714 8714 8714 8714 8714 8714 8714 8714 8714 8714 8714 8714 8714 8714 8714 8714 8714 8714 8714 8714 8714 8714 8714 8714 8714 8714 8714 8714 8714 8714 8714 8714 8714 8714 8714 8714 8714 8714 8714 8714 8714 8714 8714 8714 8714 8714 8714 8714 8714 8714 8714 8714 8714 8714 8714 8714 8714 8714 8714 8714 8714 8714 8714 8714 8714 8714 8714 8714 8714 8714 8714 8714 8714 8714 8714 8714 8714 8714 8714 8714 8714 8714 8714 8714 8714 8714 8714 8714 8714 8714 8714 8714 8714 8714 8714 8714 8714 8714 8714 8714 8714 8714 8714 8714 8714 8714 8714 8714 8714 8714 8714 8714 8714 8714 8714 8714 8714 8714 8714 8714 8714 8714 8714 8714 8714 8714 8714 8714 8714 8714 8714 8714 8714 8714 8714 8714 8714 8714 8714 8714 8714 8714 8714 8714 8714 8714 8714 8714 8714 8714 8714 8714 8714 8714 8714 8714 8714 8714 8714 8714 8714 